unsat
(:binary-propagations  42
 :conflicts            1
 :final-checks         1
 :max-generation       1
 :max-memory           28.15
 :memory               21.92
 :mk-bool-var          2936
 :mk-clause            1082
 :mk-clause-binary     5536
 :num-allocs           103335874
 :num-checks           1
 :propagations         42
 :quant-instantiations 924
 :restarts             1
 :rlimit-count         620075
 :time                 0.13)
